job_count = 26 ;
duration = [|21, 5, 2|21, 18, 3|11, 10, 6|25, 3, 1|26, 4, 1|8, 19, 5|22, 16, 9|18, 19, 8|4, 11, 5|24, 18, 6|4, 4, 8|27, 11, 5|25, 2, 5|5, 10, 1|23, 2, 9|11, 14, 9|29, 2, 6|11, 17, 8|18, 10, 9|3, 8, 5|12, 15, 8|11, 2, 1|7, 4, 8|20, 9, 5|6, 8, 8|16, 11, 8|] ;
machine_count = 3 ;
cost = [|14, 26, 46|19, 23, 38|16, 36, 34|11, 23, 49|11, 36, 50|18, 36, 42|17, 27, 52|10, 30, 47|14, 22, 41|17, 21, 51|11, 31, 48|16, 25, 53|12, 22, 35|16, 31, 34|16, 30, 42|10, 28, 49|15, 24, 54|11, 36, 59|10, 24, 37|10, 26, 57|12, 25, 59|18, 27, 46|11, 30, 50|12, 24, 33|16, 39, 30|17, 21, 40|] ;
deadline = [58, 58, 58, 58, 58, 58, 58, 58, 58, 58, 58, 58, 58, 58, 58, 58, 58, 58, 58, 58, 58, 58, 58, 58, 58, 58] ;
release = [0, 0, 0, 0, 0, 0, 0, 0, 0, 0, 0, 0, 0, 0, 0, 0, 0, 0, 0, 0, 0, 0, 0, 0, 0, 0] ;
resource = [|9, 9, 9|5, 5, 5|5, 5, 5|9, 9, 9|7, 7, 7|4, 4, 4|5, 5, 5|3, 3, 3|8, 8, 8|8, 8, 8|2, 2, 2|1, 1, 1|4, 4, 4|6, 6, 6|2, 2, 2|3, 3, 3|8, 8, 8|6, 6, 6|6, 6, 6|4, 4, 4|6, 6, 6|9, 9, 9|3, 3, 3|2, 2, 2|3, 3, 3|4, 4, 4|] ;
capacities = [10, 10, 10] ;
